p cnf 14 26
14 13 -3 0
14 13 1 0
14 10 -3 0
-14 6 5 0
14 -3 2 0
13 11 6 0
-13 10 5 0
13 -10 -1 0
13 -5 -3 0
-12 -11 -5 0
-12 10 2 0
12 9 -8 0
-12 -9 4 0
12 9 2 0
-12 -9 1 0
12 -6 5 0
-11 9 -2 0
11 8 -7 0
-11 -8 -6 0
10 6 2 0
-10 2 1 0
-9 -3 -2 0
-8 -7 -2 0
7 -2 1 0
7 2 1 0
-5 3 -1 0
